0 27 1
1 39 9
2 62 28
3 10 1
4 33 8
5 36 37
6 44 27
7 25 40
8 15 8
9 17 14
10 36 49
11 5 9
12 53 37
13 1 16
14 24 12
15 1 21
16 29 28
17 57 5
18 14 36
19 37 5
20 51 42
21 57 46
22 36 32
23 9 23
24 65 43
25 10 29
26 31 47
27 10 3
28 68 11
29 7 6
